VACCINE = Vaccine(1..2);
m = 24;
age = [SENIOR, ADULT, CHILD, AGED, AGED, YOUTH, AGED, ANCIENT, YOUTH, ADULT, ANCIENT, ADULT, CHILD, YOUTH, AGED, BABY, SENIOR, SENIOR, AGED, ANCIENT, ADULT, ADULT, AGED, ANCIENT];
gender = [FEMALE, OTHER, FEMALE, MALE, MALE, FEMALE, FEMALE, MALE, FEMALE, FEMALE, OTHER, FEMALE, FEMALE, OTHER, MALE, MALE, MALE, MALE, OTHER, OTHER, MALE, MALE, OTHER, OTHER];
health = [POOR, COMPROMISED, GOOD, COMPROMISED, GOOD, POOR, GOOD, GOOD, POOR, COMPROMISED, GOOD, COMPROMISED, COMPROMISED, GOOD, GOOD, COMPROMISED, COMPROMISED, GOOD, COMPROMISED, COMPROMISED, POOR, GOOD, POOR, GOOD];
exposure = [HIGH, HIGH, AVERAGE, EXTREME, LOW, LOW, AVERAGE, HIGH, LOW, AVERAGE, AVERAGE, LOW, AVERAGE, AVERAGE, AVERAGE, AVERAGE, LOW, LOW, HIGH, LOW, LOW, LOW, EXTREME, HIGH];
size = [7, 9, 9, 10, 10, 8, 11, 9, 10, 6, 11, 8, 10, 6, 8, 9, 10, 7, 10, 7, 9, 8, 7, 10];
minsize = 6;
age_group_min = [0, 0, 1, 1, 1, 0, 1];
age_group_max = [23, 9, 18, 16, 18, 18, 18];
max_people_diff = 73;
max_share_vaccines = 2;
health_information = {5, 6, 13};
exposure_information = {3, 7, 10, 22};